20 115
1 2
1 3
1 6
1 7
1 8
1 9
1 11
1 12
1 14
1 15
2 5
2 6
2 8
2 11
2 14
2 15
2 17
2 18
2 19
3 4
3 5
3 8
3 10
3 11
3 12
3 13
3 14
3 15
3 16
3 17
3 18
3 20
4 5
4 6
4 9
4 10
4 11
4 15
4 16
4 19
4 20
5 6
5 12
5 13
5 15
5 16
5 17
5 18
6 10
6 11
6 13
6 14
6 15
6 17
6 18
6 20
7 9
7 10
7 13
7 14
7 15
7 16
7 17
7 18
7 19
7 20
8 9
8 11
8 14
8 16
8 18
9 11
9 12
9 13
9 15
9 17
9 19
9 20
10 11
10 12
10 14
10 15
10 16
10 17
10 19
10 20
11 12
11 14
11 15
11 16
11 19
11 20
12 13
12 15
12 17
12 18
13 17
13 18
13 19
13 20
14 16
14 17
14 19
14 20
15 16
15 19
15 20
16 17
16 19
16 20
17 18
17 19
17 20
18 19
19 20
